p cnf 10 50
-7 -3 5 0
2 -10 3 0
1 -3 4 0
-3 2 -9 0
4 8 -6 0
-6 -8 7 0
-1 -8 10 0
-8 6 5 0
4 -2 7 0
-3 10 5 0
-3 -10 1 0
-3 -8 10 0
-7 -2 -9 0
6 8 7 0
-2 -8 -6 0
-6 7 4 0
-4 8 -9 0
-7 -5 -4 0
2 7 -5 0
10 -6 4 0
-6 1 9 0
-2 4 -7 0
-6 -8 -7 0
-1 -6 -4 0
-2 -8 -10 0
-8 4 -5 0
3 -7 1 0
5 -7 8 0
-2 -8 -9 0
-2 1 -4 0
-5 3 -2 0
5 4 6 0
7 9 3 0
-7 8 4 0
5 -2 8 0
8 1 3 0
3 -7 2 0
3 -10 -8 0
-9 -3 -4 0
5 -1 6 0
6 -3 4 0
-7 1 -4 0
-4 -10 2 0
9 5 -2 0
5 -1 -7 0
8 7 -3 0
5 6 -10 0
-9 -1 -10 0
1 -10 -4 0
1 -6 -7 0